163
0 50 156 88 122 118 16 41 87 154 
129 85 83 89 99 3 131 151 15 77 
71 21 47 136 56 98 6 35 152 27 
39 9 55 127 7 113 28 13 94 109 
97 42 73 45 92 48 155 101 142 17 
81 29 43 157 120 76 137 78 51 67 
61 52 46 132 38 30 72 134 44 133 
19 95 108 121 54 148 159 63 18 82 
158 104 147 115 59 111 128 66 11 141 
70 1 116 5 106 114 138 60 117 103 
4 100 23 10 96 91 24 146 69 145 
90 40 130 140 33 123 75 126 110 80 
125 102 64 135 144 79 86 31 25 139 
161 12 36 160 93 105 20 150 49 65 
53 84 57 74 68 2 37 32 26 34 
143 8 112 107 119 62 162 14 124 153 
149 22 58 
